n = 40;
m = 7;
value = [| 4, 5, 6, 7, 2, 1, 0, 4, 5, 6, 4, 5, 6, 7, 2, 1, 0, 4, 5, 6,
           0, 5, 8, 7, 3, 2, 1, 5, 4, 7, 5, 4, 5, 6, 3, 1, 0, 4, 6, 4  
         | 5, 4, 5, 6, 3, 1, 0, 4, 6, 4, 0, 5, 8, 7, 3, 2, 1, 5, 4, 7, 
           5, 6, 7, 8, 4, 1, 0, 4, 4, 6, 5, 3, 6, 5, 2, 2, 1, 3, 7, 5 
         | 5, 4, 5, 6, 3, 1, 0, 4, 6, 5, 1, 6, 9, 8, 4, 3, 2, 6, 5, 8,
           4, 5, 6, 7, 3, 0, 0, 3, 3, 5, 5, 3, 6, 5, 2, 2, 1, 3, 7, 5
         | 4, 4, 4, 4, 4, 4, 4, 4, 4, 4, 4, 4, 4, 4, 4, 4, 4, 4, 4, 4,
           5, 5, 5, 5, 5, 5, 5, 5, 5, 5, 5, 5, 5, 5, 5, 5, 5, 5, 5, 5
         | 4, 5, 4, 5, 4, 4, 4, 5, 4, 4, 4, 5, 5, 4, 4, 5, 4, 4, 4, 5,
           5, 4, 4, 5, 4, 5, 4, 5, 4, 5, 5, 4, 5, 4, 4, 4, 5, 5, 4, 4 
         | 0, 1, 2, 3, 4, 5, 6, 7, 8, 9, 0, 1, 2, 3, 4, 5, 6, 7, 8, 9,
           0, 1, 2, 3, 4, 5, 6, 7, 8, 9, 0, 1, 2, 3, 4, 5, 6, 7, 8, 9
  %       | 1, 1, 3, 3, 5, 5, 7, 7, 9, 9, 1, 1, 2, 2, 3, 3, 4, 4, 5, 5,
  %         1, 1, 3, 3, 5, 5, 7, 7, 9, 9, 1, 1, 3, 3, 5, 5, 7, 7, 9, 9
         | 5, 6, 2, 4, 3, 5, 7, 4, 6, 2, 3, 8, 5, 4, 5, 3, 2, 6, 3, 5,
           7, 3, 4, 2, 5, 6, 7, 4, 6, 2, 5, 3, 8, 3, 2, 5, 3, 2, 3, 2 |]; 